CMPL model generation - running

CMPL version: 1.11.0
Authors: Thomas Schleiff, Mike Steglich
Distributed under the GPLv3 

create model instance ...
write model instance ...
CMPL model generation - finished

Solver - running


Welcome to IBM(R) ILOG(R) CPLEX(R) Interactive Optimizer 12.7.1.0
  with Simplex, Mixed Integer & Barrier Optimizers
5725-A06 5725-A29 5724-Y48 5724-Y49 5724-Y54 5724-Y55 5655-Y21
Copyright IBM Corp. 1988, 2017.  All Rights Reserved.

Type 'help' for a list of available commands.
Type 'help' followed by a command name for more
information on commands.

CPLEX> Specified objective sense: MINIMIZE
Selected objective  name:  line[1]
Selected RHS        name:  RHS
Selected bound      name:  BOUND
Problem '/tmp/cmpl.T23392.mps' read.
Read time = 0.07 sec. (10.11 ticks)
CPLEX> CPXPARAM_Read_APIEncoding                        "UTF-8"
Tried aggregator 3 times.
MIP Presolve eliminated 24110 rows and 37785 columns.
MIP Presolve modified 425 coefficients.
Aggregator did 696 substitutions.
Reduced MIP has 3116 rows, 3974 columns, and 11784 nonzeros.
Reduced MIP has 3764 binaries, 0 generals, 0 SOSs, and 0 indicators.
Presolve time = 0.06 sec. (51.71 ticks)
Found incumbent of value 299.444725 after 0.08 sec. (66.99 ticks)
Probing fixed 4 vars, tightened 0 bounds.
Probing time = 0.01 sec. (5.04 ticks)
Tried aggregator 1 time.
MIP Presolve eliminated 0 rows and 4 columns.
MIP Presolve modified 17 coefficients.
Reduced MIP has 3116 rows, 3970 columns, and 11776 nonzeros.
Reduced MIP has 3970 binaries, 0 generals, 0 SOSs, and 0 indicators.
Presolve time = 0.01 sec. (9.90 ticks)
Probing time = 0.01 sec. (2.82 ticks)
Clique table members: 6861.
MIP emphasis: balance optimality and feasibility.
MIP search method: dynamic search.
Parallel mode: none, using 1 thread.
Root relaxation solution time = 0.00 sec. (5.27 ticks)

        Nodes                                         Cuts/
   Node  Left     Objective  IInf  Best Integer    Best Bound    ItCnt     Gap

*     0+    0                          299.4447      -42.1578           114.08%
      0     0        9.1272    22      299.4447        9.1272       68   96.95%
*     0+    0                           58.5297        9.1272            84.41%
*     0+    0                            9.6301        9.1272             5.22%
      0     0        cutoff              9.6301                     68    0.00%
Elapsed time = 0.15 sec. (107.19 ticks, tree = 0.01 MB, solutions = 3)

Root node processing (before b&c):
  Real time             =    0.15 sec. (109.02 ticks)
Sequential b&c:
  Real time             =    0.00 sec. (0.00 ticks)
                          ------------
Total (root+branch&cut) =    0.15 sec. (109.02 ticks)

Solution pool: 3 solutions saved.

MIP - Integer optimal solution:  Objective =  9.6300970000e+00
Solution time =    0.15 sec.  Iterations = 68  Nodes = 0
Deterministic time = 109.14 ticks  (731.93 ticks/sec)

CPLEX> Incumbent solution written to file '/tmp/cmpl.T23392.gsol'.
CPLEX> 
CMPL: Time used for model generation: 0 seconds
CMPL: Time used for solving the model: 1 seconds


Solution written to ASCII file: results/output_generated_conf_0/2017-05-01-5/fair-nonlinear.sol

Solver - finished
